p cnf 141 349
a 4 2 18 16 14 12 30 28 69 74 80 88 96 104 112 120 128 1 11 37 27 0
d 47 18 1 0
d 73 74 37 0
d 60 30 11 0
d 38 69 27 0
d 3 2 0
d 5 4 0
d 6 4 0
d 7 4 0
d 8 2 4 0
d 9 1 2 4 0
d 10 1 2 4 0
d 13 12 0
d 15 14 0
d 17 16 0
d 19 18 0
d 20 18 2 4 0
d 21 16 18 2 4 0
d 22 14 16 18 2 4 0
d 23 12 14 16 18 2 4 0
d 24 11 12 14 16 18 2 4 0
d 25 11 12 14 16 18 2 4 0
d 26 1 2 4 11 12 14 16 18 0
d 29 28 0
d 31 30 0
d 32 30 12 14 16 18 2 4 0
d 33 28 30 12 14 16 18 2 4 0
d 34 27 28 30 12 14 16 18 2 4 0
d 35 27 28 30 12 14 16 18 2 4 0
d 36 1 2 4 11 12 14 16 18 27 28 30 0
d 39 37 69 27 0
d 40 37 69 27 0
d 41 1 2 4 11 12 14 16 18 27 28 30 37 69 0
d 42 4 0
d 43 4 0
d 44 2 4 0
d 45 2 4 0
d 46 4 2 0
d 48 18 2 4 0
d 49 18 1 2 4 0
d 50 4 2 18 1 0
d 51 16 18 2 4 0
d 52 16 18 2 4 0
d 53 4 2 18 1 16 0
d 54 14 16 18 2 4 0
d 55 14 16 18 2 4 0
d 56 4 2 18 1 16 14 0
d 57 12 14 16 18 2 4 0
d 58 12 14 16 18 2 4 0
d 59 4 2 18 1 16 14 12 0
d 61 30 12 14 16 18 2 4 0
d 62 30 11 12 14 16 18 2 4 0
d 63 4 2 18 1 16 14 12 30 11 0
d 64 28 30 12 14 16 18 2 4 0
d 65 28 30 12 14 16 18 2 4 0
d 66 28 30 12 14 16 18 2 4 0
d 67 28 30 12 14 16 18 2 4 0
d 68 4 2 18 1 16 14 12 30 11 28 0
d 70 69 28 30 12 14 16 18 2 4 0
d 71 69 28 30 12 14 16 18 2 4 0
d 72 4 2 18 1 16 14 12 30 11 28 69 0
d 75 69 0
d 76 69 28 30 12 14 16 18 2 4 0
d 77 74 69 28 30 12 14 16 18 2 4 0
d 78 74 37 69 28 30 12 14 16 18 2 4 0
d 79 4 2 18 1 16 14 12 30 11 28 69 74 37 0
d 81 74 0
d 82 74 69 27 0
d 83 80 74 69 27 0
d 84 74 69 28 30 12 14 16 18 2 4 0
d 85 80 74 69 28 30 12 14 16 18 2 4 0
d 86 80 74 69 27 28 30 12 14 16 18 2 4 0
d 87 4 2 18 1 16 14 12 30 11 28 69 74 37 80 27 0
d 89 80 0
d 90 80 74 69 27 0
d 91 88 80 74 69 27 0
d 92 80 74 69 28 30 12 14 16 18 2 4 0
d 93 88 80 74 69 28 30 12 14 16 18 2 4 0
d 94 88 80 74 69 27 28 30 12 14 16 18 2 4 0
d 95 4 2 18 1 16 14 12 30 11 28 69 74 37 80 27 88 0
d 97 88 0
d 98 88 80 74 69 27 0
d 99 96 88 80 74 69 27 0
d 100 88 80 74 69 28 30 12 14 16 18 2 4 0
d 101 96 88 80 74 69 28 30 12 14 16 18 2 4 0
d 102 96 88 80 74 69 27 28 30 12 14 16 18 2 4 0
d 103 4 2 18 1 16 14 12 30 11 28 69 74 37 80 27 88 96 0
d 105 96 0
d 106 96 88 80 74 69 27 0
d 107 104 96 88 80 74 69 27 0
d 108 96 88 80 74 69 28 30 12 14 16 18 2 4 0
d 109 104 96 88 80 74 69 28 30 12 14 16 18 2 4 0
d 110 104 96 88 80 74 69 27 28 30 12 14 16 18 2 4 0
d 111 4 2 18 1 16 14 12 30 11 28 69 74 37 80 27 88 96 104 0
d 113 104 0
d 114 104 96 88 80 74 69 27 0
d 115 112 104 96 88 80 74 69 27 0
d 116 104 96 88 80 74 69 28 30 12 14 16 18 2 4 0
d 117 112 104 96 88 80 74 69 28 30 12 14 16 18 2 4 0
d 118 112 104 96 88 80 74 69 27 28 30 12 14 16 18 2 4 0
d 119 4 2 18 1 16 14 12 30 11 28 69 74 37 80 27 88 96 104 112 0
d 121 112 0
d 122 112 104 96 88 80 74 69 27 0
d 123 120 112 104 96 88 80 74 69 27 0
d 124 112 104 96 88 80 74 69 28 30 12 14 16 18 2 4 0
d 125 120 112 104 96 88 80 74 69 28 30 12 14 16 18 2 4 0
d 126 120 112 104 96 88 80 74 69 27 28 30 12 14 16 18 2 4 0
d 127 4 2 18 1 16 14 12 30 11 28 69 74 37 80 27 88 96 104 112 120 0
d 129 120 0
d 130 120 112 104 96 88 80 74 69 27 0
d 131 128 120 112 104 96 88 80 74 69 27 0
d 132 120 112 104 96 88 80 74 69 28 30 12 14 16 18 2 4 0
d 133 128 120 112 104 96 88 80 74 69 28 30 12 14 16 18 2 4 0
d 134 128 120 112 104 96 88 80 74 69 27 28 30 12 14 16 18 2 4 0
d 135 4 2 18 1 16 14 12 30 11 28 69 74 37 80 27 88 96 104 112 120 128 0
d 136 128 0
d 137 128 120 112 104 96 88 80 74 69 27 0
d 138 128 120 112 104 96 88 80 74 69 28 30 12 14 16 18 2 4 0
d 139 128 120 112 104 96 88 80 74 69 27 28 30 12 14 16 18 2 4 0
d 140 4 2 18 1 16 14 12 30 11 28 69 74 37 80 27 88 96 104 112 120 128 0
d 141 1 2 4 11 12 14 16 18 27 28 30 37 69 74 80 88 96 104 112 120 128 0
3 2 0
-3 -2 0
5 4 0
-5 -4 0
6 -4 0
6 -5 0
-6 4 5 0
-7 5 0
-7 6 0
7 -5 -6 0
-8 3 0
-8 7 0
8 -3 -7 0
9 -1 -8 0
9 1 8 0
-9 -1 8 0
-9 1 -8 0
10 9 0
-10 -9 0
13 12 0
-13 -12 0
15 14 0
-15 -14 0
17 16 0
-17 -16 0
19 18 0
-19 -18 0
-20 19 0
-20 8 0
20 -19 -8 0
-21 17 0
-21 20 0
21 -17 -20 0
-22 15 0
-22 21 0
22 -15 -21 0
-23 13 0
-23 22 0
23 -13 -22 0
24 -11 -23 0
24 11 23 0
-24 -11 23 0
-24 11 -23 0
25 24 0
-25 -24 0
26 -10 0
26 -25 0
-26 10 25 0
29 28 0
-29 -28 0
31 30 0
-31 -30 0
-32 31 0
-32 23 0
32 -31 -23 0
-33 29 0
-33 32 0
33 -29 -32 0
34 -27 -33 0
34 27 33 0
-34 -27 33 0
-34 27 -33 0
35 34 0
-35 -34 0
36 -26 0
36 -35 0
-36 26 35 0
39 -37 -38 0
39 37 38 0
-39 -37 38 0
-39 37 -38 0
40 39 0
-40 -39 0
41 -36 0
41 -40 0
-41 36 40 0
-42 4 0
-42 6 0
42 -4 -6 0
43 -42 -42 0
43 42 42 0
-43 -42 42 0
-43 42 -42 0
-44 2 0
-44 7 0
44 -2 -7 0
45 -44 -44 0
45 44 44 0
-45 -44 44 0
-45 44 -44 0
-46 43 0
-46 45 0
46 -43 -45 0
-48 18 0
-48 8 0
48 -18 -8 0
49 -47 -48 0
49 47 48 0
-49 -47 48 0
-49 47 -48 0
-50 46 0
-50 49 0
50 -46 -49 0
-51 16 0
-51 20 0
51 -16 -20 0
52 -51 -51 0
52 51 51 0
-52 -51 51 0
-52 51 -51 0
-53 50 0
-53 52 0
53 -50 -52 0
-54 14 0
-54 21 0
54 -14 -21 0
55 -54 -54 0
55 54 54 0
-55 -54 54 0
-55 54 -54 0
-56 53 0
-56 55 0
56 -53 -55 0
-57 12 0
-57 22 0
57 -12 -22 0
58 -57 -57 0
58 57 57 0
-58 -57 57 0
-58 57 -57 0
-59 56 0
-59 58 0
59 -56 -58 0
-61 30 0
-61 23 0
61 -30 -23 0
62 -60 -61 0
62 60 61 0
-62 -60 61 0
-62 60 -61 0
-63 59 0
-63 62 0
63 -59 -62 0
64 -28 0
64 -32 0
-64 28 32 0
65 64 0
-65 -64 0
-66 28 0
-66 32 0
66 -28 -32 0
67 -65 -66 0
67 65 66 0
-67 -65 66 0
-67 65 -66 0
-68 63 0
-68 67 0
68 -63 -67 0
-70 69 0
-70 33 0
70 -69 -33 0
71 -70 -70 0
71 70 70 0
-71 -70 70 0
-71 70 -70 0
-72 68 0
-72 71 0
72 -68 -71 0
75 69 0
-75 -69 0
-76 75 0
-76 33 0
76 -75 -33 0
-77 74 0
-77 76 0
77 -74 -76 0
78 -73 -77 0
78 73 77 0
-78 -73 77 0
-78 73 -77 0
-79 72 0
-79 78 0
79 -72 -78 0
81 74 0
-81 -74 0
-82 81 0
-82 38 0
82 -81 -38 0
-83 80 0
-83 82 0
83 -80 -82 0
-84 81 0
-84 76 0
84 -81 -76 0
-85 80 0
-85 84 0
85 -80 -84 0
86 -83 -85 0
86 83 85 0
-86 -83 85 0
-86 83 -85 0
-87 79 0
-87 86 0
87 -79 -86 0
89 80 0
-89 -80 0
-90 89 0
-90 82 0
90 -89 -82 0
-91 88 0
-91 90 0
91 -88 -90 0
-92 89 0
-92 84 0
92 -89 -84 0
-93 88 0
-93 92 0
93 -88 -92 0
94 -91 -93 0
94 91 93 0
-94 -91 93 0
-94 91 -93 0
-95 87 0
-95 94 0
95 -87 -94 0
97 88 0
-97 -88 0
-98 97 0
-98 90 0
98 -97 -90 0
-99 96 0
-99 98 0
99 -96 -98 0
-100 97 0
-100 92 0
100 -97 -92 0
-101 96 0
-101 100 0
101 -96 -100 0
102 -99 -101 0
102 99 101 0
-102 -99 101 0
-102 99 -101 0
-103 95 0
-103 102 0
103 -95 -102 0
105 96 0
-105 -96 0
-106 105 0
-106 98 0
106 -105 -98 0
-107 104 0
-107 106 0
107 -104 -106 0
-108 105 0
-108 100 0
108 -105 -100 0
-109 104 0
-109 108 0
109 -104 -108 0
110 -107 -109 0
110 107 109 0
-110 -107 109 0
-110 107 -109 0
-111 103 0
-111 110 0
111 -103 -110 0
113 104 0
-113 -104 0
-114 113 0
-114 106 0
114 -113 -106 0
-115 112 0
-115 114 0
115 -112 -114 0
-116 113 0
-116 108 0
116 -113 -108 0
-117 112 0
-117 116 0
117 -112 -116 0
118 -115 -117 0
118 115 117 0
-118 -115 117 0
-118 115 -117 0
-119 111 0
-119 118 0
119 -111 -118 0
121 112 0
-121 -112 0
-122 121 0
-122 114 0
122 -121 -114 0
-123 120 0
-123 122 0
123 -120 -122 0
-124 121 0
-124 116 0
124 -121 -116 0
-125 120 0
-125 124 0
125 -120 -124 0
126 -123 -125 0
126 123 125 0
-126 -123 125 0
-126 123 -125 0
-127 119 0
-127 126 0
127 -119 -126 0
129 120 0
-129 -120 0
-130 129 0
-130 122 0
130 -129 -122 0
-131 128 0
-131 130 0
131 -128 -130 0
-132 129 0
-132 124 0
132 -129 -124 0
-133 128 0
-133 132 0
133 -128 -132 0
134 -131 -133 0
134 131 133 0
-134 -131 133 0
-134 131 -133 0
-135 127 0
-135 134 0
135 -127 -134 0
136 128 0
-136 -128 0
-137 136 0
-137 130 0
137 -136 -130 0
-138 136 0
-138 132 0
138 -136 -132 0
139 -137 -138 0
139 137 138 0
-139 -137 138 0
-139 137 -138 0
-140 135 0
-140 139 0
140 -135 -139 0
141 -41 0
141 -140 0
-141 41 140 0
141 0
